p cnf 24 30
1 2 3 4 0
1 2 -3 4 0
1 -2 3 4 0
1 -2 -3 4 0
-1 2 3 4 0
5 6 7 1 2 3 8 0
5 6 7 1 2 -3 9 0
5 6 7 1 -2 3 11 0
5 6 7 1 -2 -3 10 0
5 6 7 -1 2 3 12 0
5 6 -7 1 2 3 13 0
5 6 -7 1 2 -3 14 0
5 6 -7 1 -2 3 15 0
5 6 -7 1 -2 -3 16 0
5 6 -7 -1 2 3 17 0
5 -6 7 1 2 3 18 0
5 -6 7 1 2 -3 24 0
5 -6 7 1 -2 3 21 0
5 -6 7 1 -2 -3 15 0
5 -6 7 -1 2 3 16 0
5 -6 -7 1 2 3 10 0
5 -6 -7 1 2 -3 16 0
5 -6 -7 1 -2 3 24 0
5 -6 -7 1 -2 -3 22 0
5 -6 -7 -1 2 3 19 0
-5 6 7 1 2 3 12 0
-5 6 7 1 2 -3 17 0
-5 6 7 1 -2 3 10 0
-5 6 7 1 -2 -3 23 0
-5 6 7 -1 2 3 20 0
